p cnf 56 196
-3 1 0
-3 2 0
-1 -2 3 0
-5 -4 0
-5 -2 0
4 2 5 0
-6 -3 0
-6 -5 0
3 5 6 0
4 2 -7 0
-4 -2 -7 0
4 -2 7 0
-4 2 7 0
4 -7 -8 0
-4 7 -8 0
4 7 8 0
-4 -7 8 0
-9 8 0
-9 1 0
-8 -1 9 0
-10 6 0
-10 -9 0
-6 9 10 0
13 -11 0
13 -12 0
11 12 -13 0
14 -10 0
14 -13 0
10 13 -14 0
9 15 -16 0
-9 -15 -16 0
9 -15 16 0
-9 15 16 0
-18 17 0
-18 17 0
-17 18 0
-19 -9 0
-19 18 0
9 -18 19 0
-11 -17 -20 0
11 17 -20 0
-11 17 20 0
11 -17 20 0
21 4 0
21 -1 0
-4 1 -21 0
20 21 -22 0
-20 -21 -22 0
20 -21 22 0
-20 21 22 0
23 -22 0
23 2 0
22 -2 -23 0
24 19 0
24 23 0
-19 -23 -24 0
-16 24 -25 0
16 -24 -25 0
-16 -24 25 0
16 24 25 0
-3 20 -26 0
3 -20 -26 0
-3 -20 26 0
3 20 26 0
-28 17 0
-28 -21 0
-17 21 28 0
-28 -29 -30 0
28 29 -30 0
-28 29 30 0
28 -29 30 0
-31 27 0
-31 -30 0
-27 30 31 0
32 -26 0
32 31 0
26 -31 -32 0
-33 4 0
-33 -4 0
-34 33 0
-34 -17 0
-33 17 34 0
35 32 0
35 -34 0
-32 34 -35 0
-36 17 0
-36 11 0
-17 -11 36 0
-37 -21 0
-37 -27 0
21 27 37 0
38 -36 0
38 -37 0
36 37 -38 0
-39 -35 0
-39 -38 0
35 38 39 0
40 -25 0
40 39 0
25 -39 -40 0
-41 21 0
-41 -1 0
-21 1 41 0
-42 -27 0
-42 41 0
27 -41 42 0
43 -5 0
43 -33 0
5 33 -43 0
-43 -20 -44 0
43 20 -44 0
-43 20 44 0
43 -20 44 0
45 -42 0
45 -44 0
42 44 -45 0
-46 -22 0
-46 -5 0
22 5 46 0
48 27 0
48 47 0
-27 -47 -48 0
-49 -46 0
-49 48 0
46 -48 49 0
-50 3 0
-50 -6 0
-3 6 50 0
22 -20 -51 0
-22 20 -51 0
22 20 51 0
-22 -20 51 0
-52 -50 0
-52 51 0
50 -51 52 0
49 52 -53 0
-49 -52 -53 0
49 -52 53 0
-49 52 53 0
-54 45 0
-54 53 0
-45 -53 54 0
-40 -54 -55 0
40 54 -55 0
-40 54 55 0
40 -54 55 0
14 -55 -56 0
-14 55 -56 0
14 55 56 0
-14 -55 56 0
24 -36 -3 0
2 -20 -38 -43 39 28 0
48 6 -43 0
-45 25 0
1 24 -43 0
20 -16 -12 -19 39 0
39 37 52 0
-27 44 23 50 -9 0
21 55 13 31 1 28 0
-28 33 0
-50 41 26 -1 -23 0
-7 16 -17 -39 -56 49 0
10 25 0
-4 53 0
33 -14 1 -37 -5 38 0
37 -29 7 24 30 0
-45 -53 -48 39 0
45 49 0
56 6 10 -14 34 0
13 26 20 -44 0
-47 2 -8 -20 -52 -25 0
30 -34 4 0
46 -23 8 -54 0
-12 31 -26 -36 0
-13 41 -53 21 0
-20 13 33 0
12 6 0
-23 -45 -25 -35 54 50 0
-5 -41 34 -33 -14 0
-8 52 29 23 0
18 -48 23 12 0
44 -53 -37 -48 3 0
-8 42 -29 -33 -46 0
-19 55 3 -41 0
-43 -24 17 44 -46 -45 0
49 -38 0
54 -16 27 -7 -33 -5 0
31 21 -51 -20 0
-21 20 1 0
-7 41 42 24 2 11 0
-38 19 0
6 -51 19 0
52 46 -41 13 0
-24 -47 -1 26 0
-44 17 -24 10 -35 -38 0
56 0
